150 2755
1 2 1
1 3 1
1 5 1
1 16 -1
1 17 -1
1 27 1
1 30 1
1 31 1
1 33 -1
1 34 1
1 46 1
1 49 -1
1 56 1
1 59 1
1 62 1
1 71 1
1 73 1
1 80 1
1 83 -1
1 87 1
1 88 1
1 94 -1
1 97 -1
1 99 -1
1 100 -1
1 103 1
1 105 -1
1 109 -1
1 112 1
1 114 -1
1 121 1
1 127 1
1 130 1
1 135 -1
1 136 -1
1 142 -1
1 143 -1
1 146 1
1 149 1
1 150 -1
2 5 -1
2 6 -1
2 8 1
2 9 -1
2 18 -1
2 20 -1
2 23 1
2 29 -1
2 37 -1
2 39 -1
2 42 -1
2 51 1
2 52 -1
2 53 1
2 57 -1
2 59 1
2 60 1
2 61 -1
2 66 -1
2 67 1
2 68 1
2 74 1
2 80 1
2 98 1
2 101 -1
2 108 1
2 114 -1
2 119 -1
2 120 -1
2 123 1
2 124 -1
2 137 -1
2 147 1
2 150 -1
3 6 1
3 7 1
3 8 -1
3 12 -1
3 13 -1
3 17 -1
3 18 -1
3 22 -1
3 27 -1
3 36 -1
3 41 -1
3 44 -1
3 47 -1
3 48 1
3 49 -1
3 54 -1
3 63 -1
3 64 -1
3 66 -1
3 70 -1
3 72 1
3 74 1
3 75 -1
3 79 1
3 80 -1
3 84 -1
3 92 -1
3 93 -1
3 94 1
3 95 -1
3 99 -1
3 101 -1
3 106 1
3 108 1
3 110 1
3 115 1
3 119 -1
3 121 1
3 122 1
3 125 1
3 127 -1
3 133 -1
3 136 1
3 138 1
3 140 -1
3 143 1
3 147 -1
3 148 1
4 8 -1
4 13 1
4 14 1
4 17 -1
4 20 1
4 24 -1
4 28 1
4 29 1
4 38 1
4 47 1
4 52 -1
4 53 -1
4 54 1
4 56 -1
4 60 -1
4 66 -1
4 73 1
4 82 -1
4 83 -1
4 91 1
4 95 1
4 96 -1
4 97 -1
4 101 1
4 112 -1
4 127 -1
4 129 -1
4 135 -1
4 146 1
5 6 1
5 13 -1
5 17 -1
5 24 1
5 25 1
5 31 1
5 32 1
5 36 -1
5 39 1
5 42 -1
5 43 -1
5 48 -1
5 50 1
5 58 1
5 71 -1
5 73 -1
5 76 1
5 82 1
5 91 1
5 93 1
5 94 1
5 102 1
5 106 -1
5 107 1
5 113 1
5 121 1
5 127 1
5 132 -1
5 134 -1
5 135 1
5 136 -1
5 142 -1
5 148 1
5 149 -1
6 10 -1
6 12 -1
6 14 1
6 24 -1
6 25 1
6 28 -1
6 34 -1
6 35 1
6 39 1
6 43 1
6 44 1
6 47 1
6 59 -1
6 61 -1
6 62 1
6 65 -1
6 67 -1
6 69 1
6 72 -1
6 77 1
6 81 -1
6 82 1
6 84 1
6 86 -1
6 87 -1
6 88 1
6 90 1
6 92 1
6 104 1
6 114 1
6 120 -1
6 123 -1
6 124 1
6 134 1
6 142 1
6 144 -1
6 147 1
6 148 -1
7 11 1
7 19 1
7 20 -1
7 22 1
7 23 1
7 32 -1
7 34 -1
7 39 1
7 43 1
7 54 1
7 62 1
7 64 1
7 66 -1
7 67 1
7 69 1
7 84 1
7 86 1
7 87 1
7 90 1
7 93 1
7 96 -1
7 98 1
7 99 1
7 104 -1
7 111 -1
7 112 1
7 113 1
7 115 1
7 116 -1
7 119 1
7 120 1
7 123 -1
7 126 1
7 130 -1
7 131 1
7 137 -1
7 138 -1
7 139 -1
7 143 -1
7 144 1
7 146 -1
7 147 -1
7 150 1
8 11 1
8 13 1
8 23 1
8 25 -1
8 29 -1
8 33 1
8 34 -1
8 40 -1
8 41 -1
8 50 1
8 53 1
8 61 1
8 73 1
8 74 1
8 79 -1
8 80 1
8 85 1
8 89 -1
8 91 1
8 96 1
8 99 -1
8 102 1
8 107 1
8 109 1
8 110 1
8 111 1
8 118 1
8 119 -1
8 120 -1
8 122 1
8 134 -1
8 136 -1
8 140 -1
8 141 -1
8 147 -1
9 10 1
9 16 -1
9 20 -1
9 22 -1
9 28 1
9 30 1
9 34 1
9 38 -1
9 49 1
9 53 -1
9 59 1
9 66 1
9 69 1
9 71 1
9 75 -1
9 77 1
9 79 -1
9 84 -1
9 87 -1
9 98 -1
9 100 -1
9 107 1
9 111 1
9 112 1
9 115 -1
9 116 -1
9 118 1
9 123 1
9 125 1
9 130 1
9 145 1
9 150 -1
10 14 1
10 24 1
10 27 1
10 36 1
10 38 1
10 59 -1
10 71 1
10 72 -1
10 76 -1
10 86 1
10 89 1
10 92 -1
10 94 1
10 95 1
10 99 -1
10 102 -1
10 108 1
10 113 1
10 118 1
10 122 -1
10 126 1
10 130 -1
10 133 1
10 136 1
10 139 -1
10 142 1
10 144 1
10 146 1
10 150 1
11 22 1
11 26 1
11 31 1
11 33 1
11 34 1
11 35 1
11 38 -1
11 41 -1
11 43 1
11 44 -1
11 46 -1
11 48 1
11 57 1
11 64 -1
11 65 1
11 66 -1
11 69 -1
11 75 1
11 76 1
11 81 1
11 84 -1
11 85 1
11 87 1
11 88 -1
11 92 1
11 96 1
11 101 1
11 102 1
11 106 -1
11 117 1
11 129 1
11 139 -1
11 143 1
11 147 1
11 148 1
11 149 -1
11 150 -1
12 13 -1
12 18 1
12 22 -1
12 24 1
12 25 -1
12 27 1
12 32 1
12 33 -1
12 34 1
12 39 1
12 40 -1
12 42 1
12 44 -1
12 50 1
12 52 1
12 55 1
12 57 -1
12 59 1
12 62 -1
12 67 -1
12 70 1
12 72 -1
12 79 -1
12 86 -1
12 93 -1
12 97 -1
12 98 -1
12 99 -1
12 106 -1
12 108 1
12 122 -1
12 128 -1
12 131 1
12 132 1
12 134 -1
12 136 -1
12 141 -1
12 144 -1
12 146 -1
12 149 1
13 14 1
13 19 1
13 20 1
13 22 -1
13 23 1
13 24 1
13 31 -1
13 41 1
13 45 -1
13 48 1
13 59 -1
13 69 -1
13 71 -1
13 72 1
13 75 -1
13 77 -1
13 80 -1
13 84 1
13 85 -1
13 87 -1
13 92 1
13 95 1
13 98 1
13 100 -1
13 104 1
13 105 1
13 108 -1
13 110 -1
13 112 1
13 116 1
13 123 1
13 130 1
13 138 1
13 140 -1
14 17 -1
14 21 -1
14 27 -1
14 44 1
14 46 1
14 47 -1
14 48 -1
14 49 1
14 50 1
14 51 -1
14 62 -1
14 73 1
14 78 1
14 80 1
14 85 -1
14 91 1
14 93 -1
14 99 1
14 101 1
14 103 -1
14 104 -1
14 105 1
14 106 -1
14 107 -1
14 111 -1
14 114 -1
14 118 -1
14 121 -1
14 123 -1
14 124 -1
14 126 -1
14 128 -1
14 134 -1
14 140 -1
15 18 -1
15 19 -1
15 24 -1
15 25 1
15 29 1
15 38 -1
15 39 -1
15 45 1
15 58 -1
15 59 -1
15 68 1
15 71 1
15 77 1
15 79 1
15 80 -1
15 87 1
15 91 1
15 94 1
15 97 -1
15 103 -1
15 110 -1
15 112 1
15 113 1
15 114 1
15 117 1
15 126 1
15 128 -1
15 130 -1
15 132 -1
15 134 1
15 138 -1
15 139 -1
15 144 1
15 145 1
15 149 1
16 22 -1
16 27 -1
16 34 1
16 37 -1
16 39 -1
16 40 1
16 41 -1
16 42 -1
16 45 1
16 57 -1
16 62 1
16 63 1
16 66 -1
16 67 -1
16 78 1
16 80 -1
16 81 -1
16 82 -1
16 90 1
16 96 -1
16 98 -1
16 101 -1
16 103 1
16 105 1
16 106 -1
16 107 -1
16 112 1
16 124 1
16 131 -1
16 142 -1
17 27 -1
17 30 -1
17 33 1
17 35 -1
17 39 1
17 41 1
17 44 1
17 63 -1
17 64 -1
17 67 1
17 72 -1
17 73 1
17 74 1
17 76 1
17 78 1
17 85 -1
17 88 -1
17 94 -1
17 98 1
17 101 -1
17 108 -1
17 109 -1
17 110 1
17 111 -1
17 116 1
17 120 -1
17 128 -1
17 130 -1
17 136 1
17 137 -1
17 139 -1
17 140 1
17 150 1
18 21 1
18 24 1
18 26 1
18 30 1
18 32 1
18 33 -1
18 53 1
18 54 1
18 57 1
18 59 -1
18 65 -1
18 69 1
18 76 -1
18 80 -1
18 82 1
18 88 1
18 92 -1
18 96 1
18 97 -1
18 107 -1
18 112 1
18 113 1
18 114 1
18 123 1
18 125 -1
18 130 -1
18 131 -1
18 135 1
18 139 1
18 149 -1
19 22 1
19 24 1
19 34 1
19 39 -1
19 40 -1
19 43 -1
19 51 -1
19 52 -1
19 64 1
19 65 1
19 66 -1
19 76 -1
19 80 -1
19 84 -1
19 101 -1
19 105 1
19 110 -1
19 113 1
19 115 1
19 117 1
19 119 1
19 122 -1
19 124 -1
19 127 -1
19 128 -1
19 133 -1
19 139 -1
19 141 1
19 142 -1
19 143 1
19 145 -1
19 146 1
19 149 -1
20 22 -1
20 26 -1
20 28 1
20 33 1
20 35 -1
20 50 -1
20 51 1
20 56 -1
20 59 1
20 62 1
20 70 -1
20 72 -1
20 78 -1
20 79 -1
20 81 1
20 83 -1
20 87 -1
20 97 1
20 98 1
20 107 1
20 109 -1
20 119 1
20 120 -1
20 131 1
20 132 -1
20 137 -1
20 145 1
20 146 1
20 148 -1
20 150 1
21 24 -1
21 41 -1
21 44 1
21 54 -1
21 55 1
21 58 -1
21 59 1
21 60 -1
21 66 1
21 68 1
21 71 -1
21 72 -1
21 80 -1
21 81 -1
21 85 -1
21 86 1
21 87 1
21 92 -1
21 94 1
21 100 -1
21 101 1
21 115 -1
21 126 1
21 127 -1
21 128 1
21 129 1
21 144 -1
22 31 -1
22 33 -1
22 36 1
22 41 1
22 42 -1
22 48 1
22 52 -1
22 55 -1
22 60 -1
22 61 -1
22 62 1
22 67 -1
22 68 -1
22 70 1
22 72 -1
22 83 1
22 88 1
22 89 1
22 93 -1
22 94 1
22 96 1
22 98 1
22 113 -1
22 115 1
22 117 1
22 121 1
22 127 -1
22 130 -1
22 133 -1
22 145 1
22 148 -1
23 24 1
23 34 1
23 41 -1
23 43 1
23 48 -1
23 52 -1
23 53 1
23 64 -1
23 65 1
23 78 -1
23 84 1
23 95 1
23 99 1
23 103 1
23 104 -1
23 113 -1
23 119 -1
23 127 1
23 128 -1
23 131 -1
23 138 1
23 139 -1
23 141 1
23 142 1
23 149 -1
24 26 1
24 27 1
24 28 1
24 31 -1
24 32 -1
24 36 1
24 41 1
24 45 -1
24 51 -1
24 56 1
24 65 1
24 73 -1
24 76 1
24 78 1
24 84 -1
24 85 -1
24 90 1
24 93 -1
24 95 -1
24 97 1
24 98 1
24 101 1
24 112 1
24 118 -1
24 120 -1
24 130 1
24 132 -1
24 137 -1
24 138 -1
24 139 1
24 140 -1
24 147 -1
25 28 1
25 40 1
25 54 1
25 55 -1
25 56 -1
25 66 1
25 71 -1
25 79 -1
25 89 1
25 90 1
25 94 -1
25 95 -1
25 104 -1
25 111 1
25 112 -1
25 119 1
25 128 1
25 137 1
25 141 1
25 144 1
26 27 -1
26 29 -1
26 30 1
26 31 -1
26 36 -1
26 38 -1
26 39 1
26 41 1
26 44 -1
26 48 -1
26 49 -1
26 55 1
26 58 -1
26 68 1
26 69 1
26 74 1
26 76 -1
26 80 -1
26 84 -1
26 87 -1
26 89 -1
26 95 1
26 97 1
26 104 1
26 113 -1
26 116 1
26 117 -1
26 121 -1
26 134 1
26 140 1
27 37 -1
27 40 -1
27 43 -1
27 71 -1
27 80 1
27 91 -1
27 92 1
27 94 1
27 96 -1
27 99 -1
27 102 -1
27 108 -1
27 109 -1
27 110 1
27 113 -1
27 117 -1
27 122 1
27 125 1
27 126 1
27 128 -1
27 129 1
27 135 1
27 137 1
27 138 -1
27 140 1
27 146 -1
28 31 -1
28 34 -1
28 36 1
28 37 1
28 39 -1
28 47 -1
28 52 -1
28 55 1
28 59 -1
28 61 1
28 63 1
28 72 -1
28 73 -1
28 80 1
28 82 1
28 83 1
28 84 1
28 88 -1
28 90 1
28 97 1
28 98 -1
28 101 1
28 103 1
28 107 1
28 112 1
28 115 1
28 116 -1
28 122 1
28 129 1
28 137 -1
28 146 1
28 149 1
29 30 1
29 39 1
29 42 1
29 44 1
29 62 -1
29 65 1
29 67 1
29 76 1
29 78 -1
29 96 1
29 98 -1
29 100 -1
29 102 -1
29 103 1
29 107 -1
29 109 1
29 126 -1
29 127 1
29 133 1
29 135 1
29 136 -1
29 137 -1
29 141 1
29 149 1
30 34 -1
30 40 1
30 43 1
30 44 1
30 49 -1
30 54 1
30 69 1
30 75 1
30 76 1
30 79 1
30 82 -1
30 83 -1
30 88 -1
30 90 1
30 92 -1
30 99 -1
30 103 -1
30 104 -1
30 105 1
30 106 1
30 111 1
30 120 1
30 124 -1
30 131 -1
30 136 1
30 137 1
30 139 -1
30 141 1
31 35 -1
31 45 1
31 49 -1
31 52 -1
31 58 1
31 61 1
31 63 -1
31 70 1
31 78 -1
31 80 -1
31 81 1
31 84 1
31 88 -1
31 89 1
31 94 1
31 95 1
31 102 1
31 106 -1
31 108 -1
31 111 1
31 112 -1
31 124 -1
31 125 -1
31 129 1
31 132 -1
31 133 -1
31 134 1
31 137 -1
31 139 1
31 147 1
31 150 -1
32 34 1
32 37 1
32 57 1
32 58 -1
32 66 -1
32 75 -1
32 76 1
32 77 1
32 82 -1
32 87 -1
32 88 -1
32 93 -1
32 95 1
32 97 1
32 103 1
32 105 -1
32 108 -1
32 114 -1
32 119 1
32 128 1
32 130 -1
32 137 -1
32 139 1
32 141 1
32 142 1
32 145 1
32 148 1
33 37 -1
33 39 -1
33 42 -1
33 46 -1
33 47 -1
33 51 1
33 65 1
33 67 -1
33 70 1
33 74 1
33 75 -1
33 82 1
33 84 1
33 85 -1
33 86 1
33 87 1
33 88 -1
33 91 1
33 96 -1
33 101 -1
33 107 -1
33 114 1
33 116 -1
33 123 -1
33 127 -1
33 135 -1
33 137 -1
33 146 -1
33 147 1
33 149 1
33 150 -1
34 35 -1
34 37 -1
34 41 -1
34 51 1
34 53 1
34 54 -1
34 59 1
34 62 -1
34 69 -1
34 75 -1
34 78 -1
34 79 1
34 83 -1
34 84 -1
34 85 -1
34 92 -1
34 94 -1
34 96 -1
34 98 -1
34 99 1
34 102 1
34 106 1
34 111 1
34 113 1
34 120 -1
34 123 1
34 125 -1
34 126 1
34 133 -1
34 134 -1
34 137 -1
34 138 1
34 139 -1
34 140 -1
34 144 -1
34 145 1
35 37 1
35 47 -1
35 50 1
35 52 1
35 56 1
35 58 -1
35 63 1
35 64 -1
35 70 -1
35 75 -1
35 80 -1
35 81 -1
35 86 1
35 98 -1
35 100 -1
35 103 1
35 104 1
35 111 -1
35 115 -1
35 117 -1
35 119 1
35 130 1
35 135 1
35 138 1
35 141 1
35 142 1
35 143 -1
35 146 1
36 38 -1
36 39 -1
36 40 -1
36 43 -1
36 50 -1
36 52 -1
36 62 1
36 65 1
36 76 -1
36 77 -1
36 78 -1
36 80 1
36 82 -1
36 85 1
36 87 -1
36 88 1
36 98 1
36 105 1
36 113 1
36 114 -1
36 115 -1
36 123 -1
36 125 1
36 126 1
36 131 -1
36 138 1
36 143 -1
36 144 -1
36 145 1
36 147 1
37 38 -1
37 63 -1
37 67 -1
37 84 -1
37 89 -1
37 90 1
37 105 -1
37 108 -1
37 109 -1
37 116 -1
37 117 -1
37 118 1
37 119 -1
37 120 1
37 121 1
37 122 -1
37 132 1
37 135 1
37 137 1
37 139 1
37 143 -1
37 145 -1
37 146 1
37 147 -1
38 39 1
38 40 -1
38 42 -1
38 43 1
38 45 -1
38 53 -1
38 54 -1
38 55 -1
38 56 1
38 59 1
38 82 1
38 86 1
38 92 -1
38 95 1
38 100 -1
38 108 -1
38 109 1
38 110 1
38 111 -1
38 117 1
38 119 -1
38 120 1
38 121 1
38 126 1
38 131 1
38 132 1
38 133 1
38 136 -1
38 144 1
38 145 1
38 149 1
38 150 -1
39 41 -1
39 42 1
39 44 -1
39 48 -1
39 51 1
39 53 1
39 54 1
39 55 -1
39 60 1
39 70 -1
39 75 1
39 76 1
39 77 -1
39 80 -1
39 83 1
39 84 1
39 87 1
39 101 -1
39 102 1
39 112 -1
39 117 -1
39 120 1
39 124 -1
39 127 -1
39 136 1
39 141 -1
39 144 1
40 43 -1
40 47 1
40 51 1
40 52 1
40 63 -1
40 69 1
40 71 -1
40 73 -1
40 74 1
40 75 1
40 76 1
40 79 1
40 81 -1
40 83 -1
40 88 1
40 97 1
40 99 1
40 104 -1
40 107 -1
40 113 -1
40 114 1
40 117 -1
40 120 -1
40 126 -1
40 128 -1
40 131 -1
40 132 -1
40 133 -1
40 136 -1
40 140 1
40 144 1
41 43 1
41 48 1
41 49 -1
41 56 1
41 57 1
41 59 1
41 60 -1
41 64 1
41 70 1
41 77 -1
41 79 1
41 82 1
41 88 -1
41 90 1
41 92 -1
41 93 1
41 98 -1
41 100 -1
41 103 1
41 115 -1
41 116 1
41 135 1
41 137 1
41 143 -1
41 144 1
41 145 -1
42 52 -1
42 53 -1
42 57 1
42 59 1
42 62 1
42 63 1
42 65 1
42 75 -1
42 77 1
42 79 1
42 83 1
42 84 -1
42 85 -1
42 86 -1
42 91 1
42 94 1
42 95 1
42 100 -1
42 101 1
42 102 1
42 104 1
42 112 -1
42 116 -1
42 117 -1
42 122 -1
42 124 -1
42 128 1
42 130 1
42 132 1
42 133 1
42 139 1
42 145 -1
43 47 1
43 51 -1
43 54 1
43 60 -1
43 61 -1
43 65 1
43 67 1
43 69 1
43 71 -1
43 73 1
43 76 1
43 78 1
43 82 1
43 84 1
43 88 -1
43 92 1
43 93 -1
43 94 -1
43 103 1
43 104 -1
43 105 1
43 106 -1
43 114 1
43 116 1
43 129 -1
43 130 1
43 133 1
43 137 1
43 138 -1
43 143 -1
43 147 -1
43 148 -1
44 48 1
44 49 -1
44 60 1
44 65 1
44 71 1
44 74 -1
44 77 1
44 82 -1
44 84 1
44 88 -1
44 91 1
44 93 -1
44 95 1
44 103 1
44 104 -1
44 108 1
44 117 1
44 118 1
44 122 -1
44 125 -1
45 59 -1
45 61 -1
45 65 1
45 80 -1
45 81 -1
45 83 -1
45 88 1
45 90 -1
45 103 1
45 106 -1
45 110 -1
45 115 -1
45 121 1
45 124 -1
45 127 -1
45 128 1
45 131 -1
45 135 -1
45 136 1
45 137 1
45 138 1
45 147 -1
46 47 -1
46 48 -1
46 53 1
46 56 1
46 64 -1
46 72 1
46 84 -1
46 86 -1
46 88 -1
46 91 1
46 98 1
46 101 1
46 103 -1
46 110 -1
46 115 -1
46 129 1
46 131 -1
46 141 1
46 150 1
47 55 -1
47 64 -1
47 76 -1
47 79 1
47 80 -1
47 85 -1
47 89 -1
47 90 -1
47 99 -1
47 102 -1
47 106 1
47 112 -1
47 122 -1
47 125 1
47 127 1
47 128 1
47 134 -1
47 135 1
47 138 -1
47 144 1
48 50 1
48 51 -1
48 55 1
48 57 1
48 58 1
48 62 -1
48 63 1
48 65 1
48 66 -1
48 69 1
48 74 -1
48 81 1
48 88 1
48 96 -1
48 97 1
48 108 1
48 113 -1
48 114 1
48 121 -1
48 124 1
48 125 -1
48 126 1
48 128 -1
48 129 -1
48 130 -1
48 135 -1
49 56 1
49 57 1
49 62 1
49 63 -1
49 66 -1
49 67 1
49 68 1
49 81 -1
49 83 -1
49 84 1
49 88 -1
49 89 1
49 91 1
49 92 1
49 93 -1
49 98 -1
49 102 -1
49 103 1
49 109 -1
49 111 -1
49 113 1
49 116 1
49 122 -1
49 123 1
49 124 -1
49 125 1
49 126 -1
49 137 1
49 139 1
49 141 -1
49 147 1
49 148 -1
49 149 1
49 150 1
50 55 1
50 65 1
50 68 -1
50 73 -1
50 84 1
50 93 1
50 94 1
50 97 1
50 104 -1
50 117 1
50 120 -1
50 122 1
50 124 -1
50 129 -1
50 130 1
50 133 -1
50 134 -1
50 137 -1
50 140 -1
50 142 -1
50 143 1
50 147 1
51 61 -1
51 69 -1
51 74 -1
51 76 -1
51 77 -1
51 88 1
51 89 -1
51 93 1
51 97 -1
51 99 -1
51 100 1
51 104 -1
51 106 -1
51 109 1
51 111 1
51 112 1
51 126 -1
51 127 1
51 137 1
51 139 -1
51 140 1
51 141 1
51 143 -1
51 145 -1
51 148 -1
51 150 1
52 53 1
52 60 1
52 64 -1
52 66 1
52 67 -1
52 69 1
52 76 -1
52 78 -1
52 86 -1
52 94 1
52 96 -1
52 107 -1
52 114 1
52 118 -1
52 119 -1
52 120 -1
52 124 -1
52 128 1
52 130 -1
52 131 -1
52 137 1
52 143 -1
52 145 1
52 147 1
53 57 1
53 61 -1
53 63 1
53 68 1
53 69 -1
53 71 1
53 75 -1
53 79 -1
53 83 -1
53 84 -1
53 88 1
53 89 1
53 91 1
53 92 -1
53 95 1
53 96 1
53 99 1
53 100 1
53 101 1
53 102 1
53 105 1
53 108 -1
53 111 -1
53 113 1
53 117 -1
53 120 -1
53 125 -1
53 139 1
53 144 -1
53 146 -1
53 148 1
54 55 -1
54 56 1
54 57 1
54 65 -1
54 72 1
54 81 1
54 89 -1
54 91 1
54 93 -1
54 96 -1
54 101 -1
54 104 -1
54 105 -1
54 109 1
54 114 -1
54 120 -1
54 122 1
54 131 -1
54 135 -1
54 142 1
54 145 1
54 150 1
55 64 -1
55 67 -1
55 70 -1
55 71 -1
55 73 -1
55 76 1
55 81 -1
55 82 -1
55 83 -1
55 87 -1
55 91 1
55 92 -1
55 96 1
55 102 -1
55 110 -1
55 111 -1
55 117 -1
55 123 1
55 137 1
55 138 1
55 140 -1
55 143 -1
55 145 -1
56 57 -1
56 60 -1
56 62 -1
56 71 -1
56 74 1
56 77 1
56 92 1
56 97 -1
56 102 -1
56 107 1
56 110 1
56 118 -1
56 131 1
56 132 -1
56 134 1
56 136 1
56 139 1
56 141 1
56 143 -1
56 146 -1
57 63 -1
57 72 -1
57 76 -1
57 84 1
57 86 1
57 88 -1
57 90 -1
57 105 1
57 108 -1
57 109 -1
57 112 -1
57 113 1
57 114 -1
57 126 -1
57 129 1
57 130 -1
57 134 -1
57 139 -1
57 142 -1
57 144 1
57 146 -1
57 150 -1
58 59 1
58 61 1
58 62 -1
58 63 -1
58 64 -1
58 68 1
58 81 -1
58 86 -1
58 89 -1
58 98 -1
58 100 1
58 109 -1
58 119 1
58 120 1
58 121 1
58 124 -1
58 127 -1
58 128 -1
58 134 -1
58 146 1
59 60 -1
59 62 1
59 69 -1
59 76 1
59 85 1
59 92 1
59 101 1
59 111 1
59 113 1
59 115 1
59 117 -1
59 119 -1
59 123 1
59 125 -1
59 130 1
59 145 1
59 149 1
60 62 -1
60 64 -1
60 66 -1
60 83 1
60 84 -1
60 86 1
60 91 1
60 92 -1
60 93 1
60 102 1
60 108 1
60 116 1
60 121 -1
60 123 -1
60 126 1
60 127 1
60 128 -1
60 132 1
60 134 1
60 136 -1
60 142 -1
60 143 -1
60 146 1
60 150 -1
61 68 -1
61 74 1
61 76 -1
61 91 -1
61 96 -1
61 99 1
61 107 -1
61 116 -1
61 120 1
61 123 -1
61 127 -1
61 136 -1
61 137 1
61 141 1
61 142 1
61 145 1
62 68 1
62 70 -1
62 74 1
62 81 -1
62 86 1
62 88 1
62 90 1
62 96 1
62 97 1
62 101 -1
62 102 1
62 111 -1
62 112 -1
62 113 -1
62 130 1
62 131 -1
62 133 -1
62 138 -1
62 142 1
62 144 1
62 146 1
62 148 1
62 150 -1
63 64 1
63 70 -1
63 72 1
63 74 1
63 77 -1
63 82 -1
63 86 -1
63 88 -1
63 89 1
63 91 -1
63 93 -1
63 95 -1
63 96 1
63 98 -1
63 103 -1
63 111 -1
63 118 -1
63 120 -1
63 126 -1
63 128 1
63 133 -1
63 140 -1
63 143 1
63 148 1
64 67 -1
64 72 -1
64 84 1
64 86 -1
64 87 -1
64 88 -1
64 95 1
64 96 -1
64 103 -1
64 104 1
64 105 1
64 108 1
64 114 1
64 120 1
64 123 -1
64 125 1
64 128 1
64 131 -1
64 137 1
64 139 1
64 140 1
64 146 -1
65 68 -1
65 75 -1
65 76 -1
65 80 -1
65 84 1
65 93 1
65 94 -1
65 97 -1
65 105 -1
65 108 -1
65 111 -1
65 114 -1
65 125 1
65 131 -1
65 139 1
65 143 1
65 149 -1
66 72 -1
66 73 1
66 82 1
66 83 1
66 88 -1
66 93 1
66 94 -1
66 105 1
66 112 1
66 114 -1
66 119 1
66 121 -1
66 122 1
66 130 -1
66 134 1
66 137 -1
66 143 1
66 148 -1
67 69 -1
67 70 -1
67 73 -1
67 79 1
67 80 -1
67 83 1
67 84 -1
67 92 1
67 95 -1
67 97 -1
67 98 1
67 99 -1
67 103 -1
67 105 -1
67 113 1
67 115 1
67 122 1
67 123 -1
67 126 -1
67 128 -1
67 129 1
67 133 1
67 135 -1
67 137 -1
67 144 -1
67 145 -1
68 71 1
68 75 -1
68 77 -1
68 78 1
68 86 -1
68 88 1
68 95 -1
68 96 1
68 99 -1
68 100 -1
68 104 -1
68 105 1
68 114 -1
68 116 1
68 125 1
68 129 -1
68 135 -1
68 140 -1
68 147 -1
68 150 -1
69 75 1
69 77 -1
69 80 -1
69 97 1
69 103 1
69 107 -1
69 108 1
69 109 1
69 112 -1
69 116 -1
69 117 -1
69 118 -1
69 122 -1
69 124 1
69 126 -1
69 129 1
69 132 1
69 133 -1
69 135 1
69 138 -1
69 139 -1
69 143 1
69 148 1
70 74 1
70 80 1
70 81 1
70 82 -1
70 83 -1
70 85 -1
70 86 -1
70 95 1
70 96 1
70 97 -1
70 107 -1
70 120 1
70 128 -1
70 131 1
70 140 -1
70 148 1
70 149 1
71 73 1
71 75 1
71 77 1
71 89 1
71 103 1
71 108 1
71 109 -1
71 110 -1
71 111 -1
71 125 -1
71 129 1
71 132 1
71 133 1
71 138 -1
71 141 -1
71 143 1
71 144 1
71 146 1
71 148 1
72 74 -1
72 77 1
72 78 1
72 94 1
72 102 1
72 105 1
72 117 1
72 118 1
72 120 -1
72 122 -1
72 124 -1
72 132 1
72 133 1
72 135 -1
72 137 -1
72 139 1
72 140 -1
72 146 1
72 148 1
72 149 -1
73 84 1
73 86 -1
73 94 -1
73 96 1
73 104 1
73 109 -1
73 113 1
73 120 1
73 121 1
73 123 1
73 126 -1
73 127 -1
73 129 -1
73 134 -1
73 139 -1
73 142 -1
73 143 1
73 148 -1
73 150 1
74 76 -1
74 80 -1
74 86 1
74 88 1
74 91 -1
74 93 -1
74 96 -1
74 104 -1
74 107 -1
74 114 1
74 119 1
74 120 -1
74 121 1
74 126 1
74 127 -1
74 131 1
74 133 -1
74 135 1
74 140 -1
74 146 1
74 148 1
74 150 -1
75 80 -1
75 83 -1
75 86 -1
75 88 -1
75 89 -1
75 91 1
75 93 -1
75 99 1
75 100 -1
75 102 1
75 103 -1
75 105 1
75 106 1
75 109 1
75 112 -1
75 113 1
75 122 -1
75 127 -1
75 129 -1
75 134 1
75 137 1
76 77 -1
76 82 -1
76 84 1
76 85 1
76 87 -1
76 89 1
76 93 1
76 95 1
76 96 1
76 100 1
76 106 1
76 113 -1
76 114 1
76 115 -1
76 116 -1
76 121 -1
76 132 -1
76 133 1
76 136 1
76 138 1
76 139 -1
76 141 1
77 79 1
77 81 -1
77 83 1
77 84 -1
77 85 -1
77 94 1
77 95 -1
77 97 -1
77 102 1
77 115 -1
77 121 -1
77 123 1
77 124 1
77 126 -1
77 127 -1
77 131 1
77 141 1
77 142 -1
77 144 1
77 149 -1
78 79 1
78 80 -1
78 86 1
78 88 1
78 91 1
78 97 -1
78 103 1
78 106 1
78 108 1
78 109 1
78 112 -1
78 113 1
78 116 1
78 118 -1
78 124 1
78 125 -1
78 134 1
78 141 1
78 142 -1
79 80 1
79 81 1
79 87 -1
79 89 -1
79 90 1
79 93 -1
79 103 1
79 119 -1
79 121 -1
79 123 1
79 128 1
79 131 -1
79 134 1
79 136 1
79 139 1
79 144 1
80 85 1
80 87 1
80 88 1
80 89 1
80 97 -1
80 98 -1
80 107 -1
80 110 -1
80 111 -1
80 113 1
80 119 1
80 126 -1
80 130 -1
80 139 1
80 143 -1
80 145 -1
80 150 1
81 84 -1
81 89 -1
81 95 1
81 102 -1
81 109 1
81 110 1
81 116 1
81 120 1
81 122 -1
81 124 1
81 129 1
81 137 -1
81 138 1
81 140 1
82 85 -1
82 89 -1
82 97 -1
82 98 -1
82 101 -1
82 105 1
82 106 1
82 107 1
82 113 -1
82 121 1
82 127 1
82 129 1
82 134 1
82 135 1
82 137 1
82 141 -1
82 142 -1
82 143 -1
82 147 -1
83 84 -1
83 85 -1
83 95 -1
83 101 -1
83 103 -1
83 106 -1
83 109 1
83 112 -1
83 114 1
83 115 1
83 116 1
83 118 1
83 124 -1
83 127 1
83 129 1
83 134 -1
83 137 -1
83 140 1
83 144 1
83 145 -1
83 148 -1
83 149 1
84 86 -1
84 91 -1
84 95 1
84 98 1
84 107 1
84 111 1
84 112 1
84 114 1
84 116 -1
84 120 1
84 130 1
84 133 1
84 135 1
84 141 -1
85 88 1
85 90 -1
85 92 1
85 101 -1
85 104 -1
85 110 1
85 111 1
85 114 -1
85 121 1
85 124 1
85 128 -1
85 132 1
85 134 1
85 135 -1
85 136 1
85 143 -1
85 144 -1
85 146 1
85 148 1
85 149 1
86 88 -1
86 90 1
86 91 -1
86 92 -1
86 93 -1
86 97 -1
86 117 1
86 118 1
86 120 1
86 121 1
86 122 -1
86 123 -1
86 130 1
86 132 1
86 133 -1
86 137 1
86 138 -1
86 147 -1
86 148 -1
87 89 -1
87 90 -1
87 91 -1
87 93 -1
87 95 1
87 106 -1
87 114 1
87 117 1
87 124 -1
87 125 -1
87 126 -1
87 127 1
87 132 1
87 133 1
87 134 -1
87 142 -1
87 147 -1
87 149 -1
88 92 1
88 93 1
88 101 1
88 104 -1
88 108 -1
88 111 -1
88 114 1
88 122 -1
88 124 -1
88 129 -1
88 130 1
88 131 -1
88 138 -1
88 144 1
88 149 -1
89 93 1
89 98 1
89 99 -1
89 100 -1
89 103 -1
89 106 1
89 107 1
89 113 1
89 118 1
89 120 -1
89 124 1
89 126 1
89 127 -1
89 131 1
89 135 1
89 141 -1
89 144 -1
90 92 1
90 93 -1
90 94 1
90 96 -1
90 101 1
90 106 -1
90 109 -1
90 112 1
90 113 -1
90 116 -1
90 123 1
90 126 1
90 127 1
90 130 1
90 131 1
90 133 -1
90 134 -1
90 141 -1
90 149 -1
91 93 -1
91 97 1
91 115 1
91 120 -1
91 126 1
91 128 1
91 134 -1
91 136 -1
91 139 1
91 141 1
91 144 -1
91 149 1
92 95 1
92 96 1
92 97 -1
92 101 1
92 103 1
92 105 -1
92 107 -1
92 109 1
92 111 -1
92 114 -1
92 122 -1
92 126 -1
92 132 1
92 134 -1
92 135 -1
92 141 1
92 142 -1
92 144 -1
92 147 1
92 148 -1
93 95 1
93 98 1
93 99 1
93 101 1
93 106 1
93 110 -1
93 119 -1
93 120 -1
93 125 -1
93 126 -1
93 130 -1
93 134 -1
93 135 -1
93 137 -1
93 138 -1
93 142 -1
93 147 1
94 102 1
94 111 1
94 112 1
94 113 -1
94 116 -1
94 118 1
94 120 -1
94 126 1
94 129 -1
94 137 -1
94 138 1
94 144 -1
95 98 -1
95 103 1
95 104 1
95 110 -1
95 122 -1
95 131 1
95 133 1
95 135 1
95 137 -1
95 144 -1
95 148 1
95 149 -1
96 98 1
96 99 -1
96 100 1
96 101 1
96 102 1
96 112 -1
96 117 -1
96 121 1
96 137 1
96 145 1
96 146 1
96 149 1
97 100 -1
97 102 1
97 104 -1
97 105 -1
97 107 1
97 109 -1
97 110 1
97 121 1
97 130 1
97 131 -1
97 133 -1
97 138 1
97 139 -1
97 144 -1
97 145 1
97 146 -1
97 147 -1
97 148 -1
97 150 1
98 101 1
98 103 -1
98 108 -1
98 109 -1
98 116 -1
98 118 1
98 120 1
98 124 -1
98 125 -1
98 128 -1
98 129 1
98 137 1
98 142 1
98 146 1
98 147 -1
99 105 1
99 108 1
99 110 -1
99 111 1
99 112 1
99 114 1
99 115 -1
99 118 -1
99 123 -1
99 132 1
99 134 -1
99 142 -1
99 144 1
99 149 -1
100 104 -1
100 107 1
100 108 -1
100 112 -1
100 124 1
100 129 -1
100 130 -1
100 140 -1
100 141 -1
100 143 1
100 146 -1
101 102 -1
101 105 1
101 106 -1
101 122 1
101 125 -1
101 129 1
101 140 1
102 105 1
102 112 -1
102 118 1
102 123 1
102 124 -1
102 125 -1
102 126 1
102 127 1
102 128 1
102 131 -1
102 132 1
102 137 1
102 138 -1
102 140 -1
102 145 1
102 146 1
103 110 1
103 119 1
103 121 1
103 126 1
103 127 -1
103 139 1
103 143 -1
103 144 -1
103 150 -1
104 116 1
104 123 -1
104 124 1
104 126 1
104 128 -1
104 134 -1
104 136 -1
104 150 -1
105 107 1
105 110 1
105 111 -1
105 115 -1
105 117 -1
105 119 -1
105 129 1
105 132 -1
105 134 1
105 135 1
105 139 1
105 140 1
105 143 1
106 107 -1
106 110 1
106 112 -1
106 117 -1
106 118 1
106 119 1
106 124 1
106 125 1
106 137 -1
106 139 1
106 141 1
107 110 1
107 111 1
107 112 1
107 113 1
107 118 1
107 121 1
107 128 1
107 130 -1
107 138 -1
108 112 -1
108 115 1
108 120 -1
108 122 -1
108 124 1
108 127 1
108 141 1
108 142 -1
108 144 1
108 146 -1
109 111 1
109 112 1
109 115 1
109 118 1
109 119 1
109 121 -1
109 137 -1
109 138 -1
109 149 1
110 112 -1
110 113 -1
110 115 1
110 117 1
110 124 -1
110 145 1
110 148 -1
111 118 1
111 122 1
111 124 -1
111 128 1
111 131 1
111 143 1
111 144 1
111 145 1
112 114 1
112 115 1
112 133 -1
112 134 -1
112 138 1
112 142 -1
112 144 1
112 150 -1
113 122 1
113 126 1
113 131 1
113 136 1
113 138 1
113 149 -1
114 117 -1
114 121 -1
114 124 -1
114 126 -1
114 130 1
114 132 1
114 148 1
114 150 -1
115 121 1
115 126 -1
115 128 1
115 129 1
115 132 -1
115 138 1
115 142 1
116 118 -1
116 120 -1
116 121 1
116 125 -1
116 141 1
116 142 1
116 144 1
116 145 -1
116 147 -1
116 150 1
117 121 1
117 123 -1
117 125 -1
117 126 1
117 129 -1
117 130 1
117 132 1
117 134 1
117 140 -1
117 149 -1
118 121 1
118 122 -1
118 125 -1
118 143 -1
118 146 -1
118 148 -1
118 149 -1
119 127 -1
119 128 -1
119 131 -1
119 137 1
120 133 1
120 139 1
120 141 -1
120 147 1
121 124 -1
121 125 -1
121 131 1
121 132 1
121 133 -1
121 136 -1
121 137 1
121 149 -1
121 150 -1
122 124 -1
122 125 1
122 126 1
122 135 -1
122 138 -1
122 142 1
122 144 -1
122 146 1
123 125 1
123 126 1
123 129 1
123 132 1
123 138 -1
123 139 -1
123 142 1
123 143 -1
123 147 -1
123 150 1
124 126 1
124 127 1
124 128 1
124 129 1
124 131 -1
124 132 1
124 134 1
124 137 1
124 146 1
125 131 1
125 133 -1
125 135 1
125 136 1
125 137 1
125 143 -1
125 150 1
126 129 1
126 130 1
126 133 -1
126 136 1
126 141 1
126 142 -1
126 143 -1
127 131 1
127 132 1
127 136 -1
127 138 1
127 140 -1
128 129 1
128 131 -1
128 140 -1
128 141 -1
128 144 -1
128 150 1
129 135 1
129 137 1
129 138 -1
129 140 -1
130 138 1
130 140 1
130 141 1
130 143 -1
130 144 -1
130 145 1
130 148 1
131 132 1
131 138 1
131 140 -1
131 142 -1
131 143 -1
131 145 1
131 146 1
131 147 1
132 133 1
132 145 -1
132 146 1
132 149 -1
133 137 -1
133 138 -1
133 142 1
133 146 1
133 148 -1
133 150 -1
134 148 1
135 140 -1
135 141 1
135 144 -1
135 147 -1
136 140 -1
136 146 -1
136 147 1
138 139 1
138 140 -1
138 143 -1
138 144 1
138 147 -1
139 142 -1
139 147 -1
140 142 1
142 146 1
142 150 -1
145 146 1
148 150 1
